\ LP format - for model browsing. Use MPS format to capture full model detail.
Minimize
  0.25 g_01 + 0.25 g_02 + 0.25 g_03 + 0.25 g_04 + 0.25 g_05 + 0.25 g_06
   + 0.25 g_07 + 0.25 g_10 + 0.25 g_12 + 0.25 g_13 + 0.25 g_14 + 0.25 g_15
   + 0.25 g_16 + 0.25 g_17 + 0.25 g_20 + 0.25 g_21 + 0.25 g_23 + 0.25 g_24
   + 0.25 g_25 + 0.25 g_26 + 0.25 g_27 + 0.25 g_30 + 0.25 g_31 + 0.25 g_32
   + 0.25 g_34 + 0.25 g_35 + 0.25 g_36 + 0.25 g_37 + 0.25 g_40 + 0.25 g_41
   + 0.25 g_42 + 0.25 g_43 + 0.25 g_45 + 0.25 g_46 + 0.25 g_47 + 0.25 g_50
   + 0.25 g_51 + 0.25 g_52 + 0.25 g_53 + 0.25 g_54 + 0.25 g_56 + 0.25 g_57
   + 0.25 g_60 + 0.25 g_61 + 0.25 g_62 + 0.25 g_63 + 0.25 g_64 + 0.25 g_65
   + 0.25 g_67 + 0.25 g_70 + 0.25 g_71 + 0.25 g_72 + 0.25 g_73 + 0.25 g_74
   + 0.25 g_75 + 0.25 g_76 + g1 + g2
Subject To
 R0: - f_0 - f_1 + l_01 + l_10 + b_01 + b_10 >= -1
 R1: - f_0 - f_2 + l_02 + l_20 + b_02 + b_20 >= -1
 R2: - f_0 - f_3 + l_03 + l_30 + b_03 + b_30 >= -1
 R3: - f_0 - f_4 + l_04 + l_40 + b_04 + b_40 >= -1
 R4: - f_0 - f_5 + l_05 + l_50 + b_05 + b_50 >= -1
 R5: - f_0 - f_6 + l_06 + l_60 + b_06 + b_60 >= -1
 R6: - f_0 - f_7 + l_07 + l_70 + b_07 + b_70 >= -1
 R7: - f_0 - f_1 + l_01 + l_10 + b_01 + b_10 >= -1
 R8: - f_1 - f_2 + l_12 + l_21 + b_12 + b_21 >= -1
 R9: - f_1 - f_3 + l_13 + l_31 + b_13 + b_31 >= -1
 R10: - f_1 - f_4 + l_14 + l_41 + b_14 + b_41 >= -1
 R11: - f_1 - f_5 + l_15 + l_51 + b_15 + b_51 >= -1
 R12: - f_1 - f_6 + l_16 + l_61 + b_16 + b_61 >= -1
 R13: - f_1 - f_7 + l_17 + l_71 + b_17 + b_71 >= -1
 R14: - f_0 - f_2 + l_02 + l_20 + b_02 + b_20 >= -1
 R15: - f_1 - f_2 + l_12 + l_21 + b_12 + b_21 >= -1
 R16: - f_2 - f_3 + l_23 + l_32 + b_23 + b_32 >= -1
 R17: - f_2 - f_4 + l_24 + l_42 + b_24 + b_42 >= -1
 R18: - f_2 - f_5 + l_25 + l_52 + b_25 + b_52 >= -1
 R19: - f_2 - f_6 + l_26 + l_62 + b_26 + b_62 >= -1
 R20: - f_2 - f_7 + l_27 + l_72 + b_27 + b_72 >= -1
 R21: - f_0 - f_3 + l_03 + l_30 + b_03 + b_30 >= -1
 R22: - f_1 - f_3 + l_13 + l_31 + b_13 + b_31 >= -1
 R23: - f_2 - f_3 + l_23 + l_32 + b_23 + b_32 >= -1
 R24: - f_3 - f_4 + l_34 + l_43 + b_34 + b_43 >= -1
 R25: - f_3 - f_5 + l_35 + l_53 + b_35 + b_53 >= -1
 R26: - f_3 - f_6 + l_36 + l_63 + b_36 + b_63 >= -1
 R27: - f_3 - f_7 + l_37 + l_73 + b_37 + b_73 >= -1
 R28: - f_0 - f_4 + l_04 + l_40 + b_04 + b_40 >= -1
 R29: - f_1 - f_4 + l_14 + l_41 + b_14 + b_41 >= -1
 R30: - f_2 - f_4 + l_24 + l_42 + b_24 + b_42 >= -1
 R31: - f_3 - f_4 + l_34 + l_43 + b_34 + b_43 >= -1
 R32: - f_4 - f_5 + l_45 + l_54 + b_45 + b_54 >= -1
 R33: - f_4 - f_6 + l_46 + l_64 + b_46 + b_64 >= -1
 R34: - f_4 - f_7 + l_47 + l_74 + b_47 + b_74 >= -1
 R35: - f_0 - f_5 + l_05 + l_50 + b_05 + b_50 >= -1
 R36: - f_1 - f_5 + l_15 + l_51 + b_15 + b_51 >= -1
 R37: - f_2 - f_5 + l_25 + l_52 + b_25 + b_52 >= -1
 R38: - f_3 - f_5 + l_35 + l_53 + b_35 + b_53 >= -1
 R39: - f_4 - f_5 + l_45 + l_54 + b_45 + b_54 >= -1
 R40: - f_5 - f_6 + l_56 + l_65 + b_56 + b_65 >= -1
 R41: - f_5 - f_7 + l_57 + l_75 + b_57 + b_75 >= -1
 R42: - f_0 - f_6 + l_06 + l_60 + b_06 + b_60 >= -1
 R43: - f_1 - f_6 + l_16 + l_61 + b_16 + b_61 >= -1
 R44: - f_2 - f_6 + l_26 + l_62 + b_26 + b_62 >= -1
 R45: - f_3 - f_6 + l_36 + l_63 + b_36 + b_63 >= -1
 R46: - f_4 - f_6 + l_46 + l_64 + b_46 + b_64 >= -1
 R47: - f_5 - f_6 + l_56 + l_65 + b_56 + b_65 >= -1
 R48: - f_6 - f_7 + l_67 + l_76 + b_67 + b_76 >= -1
 R49: - f_0 - f_7 + l_07 + l_70 + b_07 + b_70 >= -1
 R50: - f_1 - f_7 + l_17 + l_71 + b_17 + b_71 >= -1
 R51: - f_2 - f_7 + l_27 + l_72 + b_27 + b_72 >= -1
 R52: - f_3 - f_7 + l_37 + l_73 + b_37 + b_73 >= -1
 R53: - f_4 - f_7 + l_47 + l_74 + b_47 + b_74 >= -1
 R54: - f_5 - f_7 + l_57 + l_75 + b_57 + b_75 >= -1
 R55: - f_6 - f_7 + l_67 + l_76 + b_67 + b_76 >= -1
 R56: x_0 - x_1 + 34 l_01 <= 30
 R57: x_0 - x_2 + 34 l_02 <= 30
 R58: x_0 - x_3 + 34 l_03 <= 30
 R59: x_0 - x_4 + 34 l_04 <= 30
 R60: x_0 - x_5 + 34 l_05 <= 30
 R61: x_0 - x_6 + 34 l_06 <= 30
 R62: x_0 - x_7 + 34 l_07 <= 30
 R63: - x_0 + x_1 + 34 l_10 <= 29
 R64: x_1 - x_2 + 34 l_12 <= 29
 R65: x_1 - x_3 + 34 l_13 <= 29
 R66: x_1 - x_4 + 34 l_14 <= 29
 R67: x_1 - x_5 + 34 l_15 <= 29
 R68: x_1 - x_6 + 34 l_16 <= 29
 R69: x_1 - x_7 + 34 l_17 <= 29
 R70: - x_0 + x_2 + 34 l_20 <= 27
 R71: - x_1 + x_2 + 34 l_21 <= 27
 R72: x_2 - x_3 + 34 l_23 <= 27
 R73: x_2 - x_4 + 34 l_24 <= 27
 R74: x_2 - x_5 + 34 l_25 <= 27
 R75: x_2 - x_6 + 34 l_26 <= 27
 R76: x_2 - x_7 + 34 l_27 <= 27
 R77: - x_0 + x_3 + 34 l_30 <= 30
 R78: - x_1 + x_3 + 34 l_31 <= 30
 R79: - x_2 + x_3 + 34 l_32 <= 30
 R80: x_3 - x_4 + 34 l_34 <= 30
 R81: x_3 - x_5 + 34 l_35 <= 30
 R82: x_3 - x_6 + 34 l_36 <= 30
 R83: x_3 - x_7 + 34 l_37 <= 30
 R84: - x_0 + x_4 + 34 l_40 <= 29
 R85: - x_1 + x_4 + 34 l_41 <= 29
 R86: - x_2 + x_4 + 34 l_42 <= 29
 R87: - x_3 + x_4 + 34 l_43 <= 29
 R88: x_4 - x_5 + 34 l_45 <= 29
 R89: x_4 - x_6 + 34 l_46 <= 29
 R90: x_4 - x_7 + 34 l_47 <= 29
 R91: - x_0 + x_5 + 34 l_50 <= 29
 R92: - x_1 + x_5 + 34 l_51 <= 29
 R93: - x_2 + x_5 + 34 l_52 <= 29
 R94: - x_3 + x_5 + 34 l_53 <= 29
 R95: - x_4 + x_5 + 34 l_54 <= 29
 R96: x_5 - x_6 + 34 l_56 <= 29
 R97: x_5 - x_7 + 34 l_57 <= 29
 R98: - x_0 + x_6 + 34 l_60 <= 30
 R99: - x_1 + x_6 + 34 l_61 <= 30
 R100: - x_2 + x_6 + 34 l_62 <= 30
 R101: - x_3 + x_6 + 34 l_63 <= 30
 R102: - x_4 + x_6 + 34 l_64 <= 30
 R103: - x_5 + x_6 + 34 l_65 <= 30
 R104: x_6 - x_7 + 34 l_67 <= 30
 R105: - x_0 + x_7 + 34 l_70 <= 30
 R106: - x_1 + x_7 + 34 l_71 <= 30
 R107: - x_2 + x_7 + 34 l_72 <= 30
 R108: - x_3 + x_7 + 34 l_73 <= 30
 R109: - x_4 + x_7 + 34 l_74 <= 30
 R110: - x_5 + x_7 + 34 l_75 <= 30
 R111: - x_6 + x_7 + 34 l_76 <= 30
 R112: y_0 - y_1 + 26 b_01 <= 22
 R113: y_0 - y_2 + 26 b_02 <= 22
 R114: y_0 - y_3 + 26 b_03 <= 22
 R115: y_0 - y_4 + 26 b_04 <= 22
 R116: y_0 - y_5 + 26 b_05 <= 22
 R117: y_0 - y_6 + 26 b_06 <= 22
 R118: y_0 - y_7 + 26 b_07 <= 22
 R119: - y_0 + y_1 + 26 b_10 <= 21
 R120: y_1 - y_2 + 26 b_12 <= 21
 R121: y_1 - y_3 + 26 b_13 <= 21
 R122: y_1 - y_4 + 26 b_14 <= 21
 R123: y_1 - y_5 + 26 b_15 <= 21
 R124: y_1 - y_6 + 26 b_16 <= 21
 R125: y_1 - y_7 + 26 b_17 <= 21
 R126: - y_0 + y_2 + 26 b_20 <= 20
 R127: - y_1 + y_2 + 26 b_21 <= 20
 R128: y_2 - y_3 + 26 b_23 <= 20
 R129: y_2 - y_4 + 26 b_24 <= 20
 R130: y_2 - y_5 + 26 b_25 <= 20
 R131: y_2 - y_6 + 26 b_26 <= 20
 R132: y_2 - y_7 + 26 b_27 <= 20
 R133: - y_0 + y_3 + 26 b_30 <= 22
 R134: - y_1 + y_3 + 26 b_31 <= 22
 R135: - y_2 + y_3 + 26 b_32 <= 22
 R136: y_3 - y_4 + 26 b_34 <= 22
 R137: y_3 - y_5 + 26 b_35 <= 22
 R138: y_3 - y_6 + 26 b_36 <= 22
 R139: y_3 - y_7 + 26 b_37 <= 22
 R140: - y_0 + y_4 + 26 b_40 <= 21
 R141: - y_1 + y_4 + 26 b_41 <= 21
 R142: - y_2 + y_4 + 26 b_42 <= 21
 R143: - y_3 + y_4 + 26 b_43 <= 21
 R144: y_4 - y_5 + 26 b_45 <= 21
 R145: y_4 - y_6 + 26 b_46 <= 21
 R146: y_4 - y_7 + 26 b_47 <= 21
 R147: - y_0 + y_5 + 26 b_50 <= 21
 R148: - y_1 + y_5 + 26 b_51 <= 21
 R149: - y_2 + y_5 + 26 b_52 <= 21
 R150: - y_3 + y_5 + 26 b_53 <= 21
 R151: - y_4 + y_5 + 26 b_54 <= 21
 R152: y_5 - y_6 + 26 b_56 <= 21
 R153: y_5 - y_7 + 26 b_57 <= 21
 R154: - y_0 + y_6 + 26 b_60 <= 22
 R155: - y_1 + y_6 + 26 b_61 <= 22
 R156: - y_2 + y_6 + 26 b_62 <= 22
 R157: - y_3 + y_6 + 26 b_63 <= 22
 R158: - y_4 + y_6 + 26 b_64 <= 22
 R159: - y_5 + y_6 + 26 b_65 <= 22
 R160: y_6 - y_7 + 26 b_67 <= 22
 R161: - y_0 + y_7 + 26 b_70 <= 22
 R162: - y_1 + y_7 + 26 b_71 <= 22
 R163: - y_2 + y_7 + 26 b_72 <= 22
 R164: - y_3 + y_7 + 26 b_73 <= 22
 R165: - y_4 + y_7 + 26 b_74 <= 22
 R166: - y_5 + y_7 + 26 b_75 <= 22
 R167: - y_6 + y_7 + 26 b_76 <= 22
 R168: x_0 >= 0
 R169: x_1 >= 0
 R170: x_2 >= 0
 R171: x_3 >= 0
 R172: x_4 >= 0
 R173: x_5 >= 0
 R174: x_6 >= 0
 R175: x_7 >= 0
 R176: x_0 <= 30
 R177: x_1 <= 29
 R178: x_2 <= 27
 R179: x_3 <= 30
 R180: x_4 <= 29
 R181: x_5 <= 29
 R182: x_6 <= 30
 R183: x_7 <= 30
 R184: y_0 >= 0
 R185: y_1 >= 0
 R186: y_2 >= 0
 R187: y_3 >= 0
 R188: y_4 >= 0
 R189: y_5 >= 0
 R190: y_6 >= 0
 R191: y_7 >= 0
 R192: y_0 <= 22
 R193: y_1 <= 21
 R194: y_2 <= 20
 R195: y_3 <= 22
 R196: y_4 <= 21
 R197: y_5 <= 21
 R198: y_6 <= 22
 R199: y_7 <= 22
 R200: - 16 f_0 - 25 f_1 - 42 f_2 - 16 f_3 - 25 f_4 - 25 f_5 - 16 f_6
   - 16 f_7 - g1 = -882
 R201: - 16 f_0 - 25 f_1 - 42 f_2 - 16 f_3 - 25 f_4 - 25 f_5 - 16 f_6
   - 16 f_7 - g1 = -882
 R202: - 16 f_0 - 25 f_1 - 42 f_2 - 16 f_3 - 25 f_4 - 25 f_5 - 16 f_6
   - 16 f_7 - g1 = -882
 R203: - 16 f_0 - 25 f_1 - 42 f_2 - 16 f_3 - 25 f_4 - 25 f_5 - 16 f_6
   - 16 f_7 - g1 = -882
 R204: - 16 f_0 - 25 f_1 - 42 f_2 - 16 f_3 - 25 f_4 - 25 f_5 - 16 f_6
   - 16 f_7 - g1 = -882
 R205: - 16 f_0 - 25 f_1 - 42 f_2 - 16 f_3 - 25 f_4 - 25 f_5 - 16 f_6
   - 16 f_7 - g1 = -882
 R206: - 16 f_0 - 25 f_1 - 42 f_2 - 16 f_3 - 25 f_4 - 25 f_5 - 16 f_6
   - 16 f_7 - g1 = -882
 R207: - 16 f_0 - 25 f_1 - 42 f_2 - 16 f_3 - 25 f_4 - 25 f_5 - 16 f_6
   - 16 f_7 - g1 = -882
 R208: 8 f_0 + 12 f_1 + 20 f_2 + 8 f_3 + 12 f_4 + 12 f_5 + 8 f_6 + 8 f_7
   + g2 = 10
 R209: 8 f_0 + 12 f_1 + 20 f_2 + 8 f_3 + 12 f_4 + 12 f_5 + 8 f_6 + 8 f_7
   + g2 = 10
 R210: 8 f_0 + 12 f_1 + 20 f_2 + 8 f_3 + 12 f_4 + 12 f_5 + 8 f_6 + 8 f_7
   + g2 = 10
 R211: 8 f_0 + 12 f_1 + 20 f_2 + 8 f_3 + 12 f_4 + 12 f_5 + 8 f_6 + 8 f_7
   + g2 = 10
 R212: 8 f_0 + 12 f_1 + 20 f_2 + 8 f_3 + 12 f_4 + 12 f_5 + 8 f_6 + 8 f_7
   + g2 = 10
 R213: 8 f_0 + 12 f_1 + 20 f_2 + 8 f_3 + 12 f_4 + 12 f_5 + 8 f_6 + 8 f_7
   + g2 = 10
 R214: 8 f_0 + 12 f_1 + 20 f_2 + 8 f_3 + 12 f_4 + 12 f_5 + 8 f_6 + 8 f_7
   + g2 = 10
 R215: 8 f_0 + 12 f_1 + 20 f_2 + 8 f_3 + 12 f_4 + 12 f_5 + 8 f_6 + 8 f_7
   + g2 = 10
 R216: - f_0 - f_1 + g_01 >= -1
 R217: - f_0 - f_2 + g_02 >= -1
 R218: - f_0 - f_3 + g_03 >= -1
 R219: - f_0 - f_4 + g_04 >= -1
 R220: - f_0 - f_5 + g_05 >= -1
 R221: - f_0 - f_6 + g_06 >= -1
 R222: - f_0 - f_7 + g_07 >= -1
 R223: - f_0 - f_1 + g_10 >= -1
 R224: - f_1 - f_2 + g_12 >= -1
 R225: - f_1 - f_3 + g_13 >= -1
 R226: - f_1 - f_4 + g_14 >= -1
 R227: - f_1 - f_5 + g_15 >= -1
 R228: - f_1 - f_6 + g_16 >= -1
 R229: - f_1 - f_7 + g_17 >= -1
 R230: - f_0 - f_2 + g_20 >= -1
 R231: - f_1 - f_2 + g_21 >= -1
 R232: - f_2 - f_3 + g_23 >= -1
 R233: - f_2 - f_4 + g_24 >= -1
 R234: - f_2 - f_5 + g_25 >= -1
 R235: - f_2 - f_6 + g_26 >= -1
 R236: - f_2 - f_7 + g_27 >= -1
 R237: - f_0 - f_3 + g_30 >= -1
 R238: - f_1 - f_3 + g_31 >= -1
 R239: - f_2 - f_3 + g_32 >= -1
 R240: - f_3 - f_4 + g_34 >= -1
 R241: - f_3 - f_5 + g_35 >= -1
 R242: - f_3 - f_6 + g_36 >= -1
 R243: - f_3 - f_7 + g_37 >= -1
 R244: - f_0 - f_4 + g_40 >= -1
 R245: - f_1 - f_4 + g_41 >= -1
 R246: - f_2 - f_4 + g_42 >= -1
 R247: - f_3 - f_4 + g_43 >= -1
 R248: - f_4 - f_5 + g_45 >= -1
 R249: - f_4 - f_6 + g_46 >= -1
 R250: - f_4 - f_7 + g_47 >= -1
 R251: - f_0 - f_5 + g_50 >= -1
 R252: - f_1 - f_5 + g_51 >= -1
 R253: - f_2 - f_5 + g_52 >= -1
 R254: - f_3 - f_5 + g_53 >= -1
 R255: - f_4 - f_5 + g_54 >= -1
 R256: - f_5 - f_6 + g_56 >= -1
 R257: - f_5 - f_7 + g_57 >= -1
 R258: - f_0 - f_6 + g_60 >= -1
 R259: - f_1 - f_6 + g_61 >= -1
 R260: - f_2 - f_6 + g_62 >= -1
 R261: - f_3 - f_6 + g_63 >= -1
 R262: - f_4 - f_6 + g_64 >= -1
 R263: - f_5 - f_6 + g_65 >= -1
 R264: - f_6 - f_7 + g_67 >= -1
 R265: - f_0 - f_7 + g_70 >= -1
 R266: - f_1 - f_7 + g_71 >= -1
 R267: - f_2 - f_7 + g_72 >= -1
 R268: - f_3 - f_7 + g_73 >= -1
 R269: - f_4 - f_7 + g_74 >= -1
 R270: - f_5 - f_7 + g_75 >= -1
 R271: - f_6 - f_7 + g_76 >= -1
Bounds
Binaries
 f_0 f_1 f_2 f_3 f_4 f_5 f_6 f_7 l_01 l_02 l_03 l_04 l_05 l_06 l_07 l_10
 l_12 l_13 l_14 l_15 l_16 l_17 l_20 l_21 l_23 l_24 l_25 l_26 l_27 l_30 l_31
 l_32 l_34 l_35 l_36 l_37 l_40 l_41 l_42 l_43 l_45 l_46 l_47 l_50 l_51 l_52
 l_53 l_54 l_56 l_57 l_60 l_61 l_62 l_63 l_64 l_65 l_67 l_70 l_71 l_72 l_73
 l_74 l_75 l_76 b_01 b_02 b_03 b_04 b_05 b_06 b_07 b_10 b_12 b_13 b_14 b_15
 b_16 b_17 b_20 b_21 b_23 b_24 b_25 b_26 b_27 b_30 b_31 b_32 b_34 b_35 b_36
 b_37 b_40 b_41 b_42 b_43 b_45 b_46 b_47 b_50 b_51 b_52 b_53 b_54 b_56 b_57
 b_60 b_61 b_62 b_63 b_64 b_65 b_67 b_70 b_71 b_72 b_73 b_74 b_75 b_76 g_01
 g_02 g_03 g_04 g_05 g_06 g_07 g_10 g_12 g_13 g_14 g_15 g_16 g_17 g_20 g_21
 g_23 g_24 g_25 g_26 g_27 g_30 g_31 g_32 g_34 g_35 g_36 g_37 g_40 g_41 g_42
 g_43 g_45 g_46 g_47 g_50 g_51 g_52 g_53 g_54 g_56 g_57 g_60 g_61 g_62 g_63
 g_64 g_65 g_67 g_70 g_71 g_72 g_73 g_74 g_75 g_76
End
